sifdecoder -A pc64.lnx.gfo -st   CONT5-QP

 Problem name: CONT5-QP

 Double precision version will be formed

 The objective function uses 1 nonlinear group
 
 There are 40200 linear equality constraints
 
 There are 40400 variables bounded from below and above 
 There are 201 fixed variables
 
 
 File successfully decoded
 CUTEST: tools (double precision version) compiled successfully
 CUTEst: ipopt (double precision version) compiled successfully

******************************************************************************
This program contains Ipopt, a library for large-scale nonlinear optimization.
 Ipopt is released as open source code under the Eclipse Public License (EPL).
         For more information visit http://projects.coin-or.org/Ipopt
******************************************************************************

This is Ipopt version trunk, running with linear solver ma57.

Number of nonzeros in equality constraint Jacobian...:   239603
Number of nonzeros in inequality constraint Jacobian.:        0
Number of nonzeros in Lagrangian Hessian.............:      401

Reallocating memory for MA57: lfact (10687014)
Total number of variables............................:    40400
                     variables with only lower bounds:        0
                variables with lower and upper bounds:    40400
                     variables with only upper bounds:        0
Total number of equality constraints.................:    40200
Total number of inequality constraints...............:        0
        inequality constraints with only lower bounds:        0
   inequality constraints with lower and upper bounds:        0
        inequality constraints with only upper bounds:        0

iter    objective    inf_pr   inf_du lg(mu)  ||d||  lg(rg) alpha_du alpha_pr  ls
   0  6.6666745e-02 1.00e-02 9.23e-02  -1.0 0.00e+00    -  0.00e+00 0.00e+00   0
   1  6.2847403e-02 5.68e-13 1.06e-02  -1.7 1.94e-02    -  9.94e-01 1.00e+00f  1
   2  6.2264793e-02 5.12e-13 3.55e-10  -2.5 3.85e-02    -  1.00e+00 1.00e+00f  1
   3  5.9259070e-02 9.09e-13 1.53e-04  -3.8 3.82e-02    -  9.77e-01 1.00e+00f  1
   4  5.0808424e-02 5.00e-12 2.97e-03  -5.7 7.82e-01    -  1.19e-01 1.00e+00f  1
   5  4.7135460e-02 5.46e-12 1.88e-03  -5.7 5.05e-01    -  3.66e-01 4.12e-01f  1
   6  4.3720901e-02 8.64e-12 1.33e-03  -5.7 8.54e-01    -  2.96e-01 2.51e-01f  1
   7  3.3963869e-02 7.28e-12 8.83e-04  -5.7 9.48e-01    -  2.80e-01 6.44e-01f  1
   8  3.0326966e-02 8.19e-12 7.12e-04  -5.7 1.21e+00    -  1.77e-01 2.87e-01f  1
   9  2.9290834e-02 8.19e-12 4.68e-04  -5.7 5.40e+00    -  3.91e-01 7.40e-02f  1
iter    objective    inf_pr   inf_du lg(mu)  ||d||  lg(rg) alpha_du alpha_pr  ls
  10  2.5658595e-02 8.19e-12 4.01e-04  -5.7 2.84e+00    -  1.08e-01 2.34e-01f  1
  11  2.3480333e-02 9.09e-12 3.29e-04  -5.7 2.55e+00    -  1.85e-01 1.70e-01f  1
  12  2.1225488e-02 1.00e-11 2.65e-04  -5.7 2.33e+00    -  1.97e-01 1.89e-01f  1
  13  1.9259166e-02 9.09e-12 2.15e-04  -5.7 2.44e+00    -  1.89e-01 1.84e-01f  1
  14  1.7505962e-02 9.09e-12 1.76e-04  -5.7 2.53e+00    -  1.77e-01 1.86e-01f  1
  15  1.5974645e-02 9.09e-12 1.45e-04  -5.7 2.59e+00    -  1.71e-01 1.87e-01f  1
  16  1.4579073e-02 1.09e-11 1.19e-04  -5.7 2.55e+00    -  1.67e-01 1.99e-01f  1
  17  1.3366965e-02 1.00e-11 9.73e-05  -5.7 2.53e+00    -  1.65e-01 2.06e-01f  1
  18  1.2334850e-02 1.09e-11 7.92e-05  -5.7 2.44e+00    -  1.65e-01 2.13e-01f  1
  19  1.1683823e-02 1.09e-11 6.60e-05  -5.7 2.27e+00    -  1.73e-01 1.60e-01f  1
iter    objective    inf_pr   inf_du lg(mu)  ||d||  lg(rg) alpha_du alpha_pr  ls
  20  1.1382139e-02 1.27e-11 5.62e-05  -5.7 2.42e+00    -  2.05e-01 7.92e-02f  1
  21  1.0932456e-02 1.46e-11 4.66e-05  -5.7 4.08e+00    -  2.29e-01 1.20e-01f  1
  22  1.0480114e-02 1.27e-11 3.85e-05  -5.7 4.43e+00    -  2.39e-01 1.33e-01f  1
  23  1.0038866e-02 1.27e-11 3.17e-05  -5.7 4.43e+00    -  2.46e-01 1.48e-01f  1
  24  9.6215068e-03 1.09e-11 2.61e-05  -5.7 4.19e+00    -  2.57e-01 1.64e-01f  1
  25  9.2304935e-03 1.27e-11 2.44e-05  -5.7 3.81e+00    -  2.74e-01 1.86e-01f  1
  26  8.8704869e-03 1.27e-11 2.32e-05  -5.7 3.31e+00    -  3.06e-01 2.15e-01f  1
  27  8.5409449e-03 1.27e-11 2.08e-05  -5.7 2.73e+00    -  3.59e-01 2.60e-01f  1
  28  8.2443823e-03 1.27e-11 1.77e-05  -5.7 2.09e+00    -  4.70e-01 3.31e-01f  1
  29  7.9496423e-03 1.27e-11 1.31e-05  -8.6 4.22e+00    -  1.33e-01 1.57e-01f  1
iter    objective    inf_pr   inf_du lg(mu)  ||d||  lg(rg) alpha_du alpha_pr  ls
  30  7.7174968e-03 1.46e-11 1.01e-05  -8.6 4.25e+00    -  1.33e-01 1.48e-01f  1
  31  7.5205119e-03 1.46e-11 7.22e-06  -8.6 4.21e+00    -  1.28e-01 1.48e-01f  1
  32  7.3533088e-03 1.64e-11 4.71e-06  -8.6 4.08e+00    -  1.26e-01 1.48e-01f  1
  33  7.2093575e-03 1.46e-11 3.84e-06  -8.6 3.92e+00    -  1.23e-01 1.50e-01f  1
  34  7.0864154e-03 1.46e-11 3.37e-06  -8.6 3.72e+00    -  1.22e-01 1.51e-01f  1
  35  6.9800284e-03 1.64e-11 2.97e-06  -8.6 3.50e+00    -  1.21e-01 1.54e-01f  1
  36  6.8890428e-03 1.64e-11 3.77e-06  -8.6 3.25e+00    -  1.22e-01 1.55e-01f  1
  37  6.8100361e-03 1.46e-11 4.65e-06  -8.6 3.00e+00    -  1.23e-01 1.58e-01f  1
  38  6.7424272e-03 1.82e-11 5.17e-06  -8.6 2.74e+00    -  1.27e-01 1.59e-01f  1
  39  6.6834549e-03 1.46e-11 5.42e-06  -8.6 2.48e+00    -  1.32e-01 1.62e-01f  1
iter    objective    inf_pr   inf_du lg(mu)  ||d||  lg(rg) alpha_du alpha_pr  ls
  40  6.6328067e-03 1.27e-11 5.24e-06  -8.6 2.21e+00    -  1.40e-01 1.62e-01f  1
  41  6.5881416e-03 1.46e-11 4.94e-06  -8.6 2.09e+00    -  1.45e-01 1.64e-01f  1
  42  6.5498301e-03 1.82e-11 4.67e-06  -8.6 1.96e+00    -  1.43e-01 1.64e-01f  1
  43  6.5165382e-03 1.46e-11 4.19e-06  -8.6 1.73e+00    -  1.54e-01 1.67e-01f  1
  44  6.4875278e-03 1.46e-11 3.81e-06  -8.6 1.53e+00    -  1.55e-01 1.71e-01f  1
  45  6.4622670e-03 1.64e-11 3.38e-06  -8.6 1.36e+00    -  1.65e-01 1.78e-01f  1
  46  6.4408299e-03 1.82e-11 2.97e-06  -8.6 1.18e+00    -  1.71e-01 1.84e-01f  1
  47  6.4222913e-03 1.82e-11 2.51e-06  -8.6 1.02e+00    -  1.88e-01 1.96e-01f  1
  48  6.4067440e-03 1.46e-11 2.16e-06  -8.6 8.72e-01    -  1.94e-01 2.09e-01f  1
  49  6.3938030e-03 1.64e-11 1.83e-06  -8.6 7.33e-01    -  2.13e-01 2.30e-01f  1
iter    objective    inf_pr   inf_du lg(mu)  ||d||  lg(rg) alpha_du alpha_pr  ls
  50  6.3834821e-03 1.64e-11 1.51e-06  -8.6 6.00e-01    -  2.37e-01 2.54e-01f  1
  51  6.3753207e-03 1.82e-11 1.26e-06  -8.6 4.78e-01    -  2.67e-01 2.97e-01f  1
  52  6.3693905e-03 1.64e-11 1.03e-06  -8.6 3.61e-01    -  3.14e-01 3.57e-01f  1
  53  6.3653227e-03 1.46e-11 9.03e-07  -8.6 2.53e-01    -  3.81e-01 4.84e-01f  1
  54  6.3633913e-03 2.00e-11 6.29e-07  -8.6 1.46e-01    -  5.06e-01 6.32e-01f  1
  55  6.3628962e-03 1.82e-11 7.38e-08  -8.6 6.17e-02    -  7.41e-01 5.86e-01f  1
Reallocating memory for MA57: lfact (11238069)
  56  6.3626571e-03 1.82e-11 2.08e-16  -8.6 2.95e-02    -  1.00e+00 1.00e+00f  1

Number of Iterations....: 56

                                   (scaled)                 (unscaled)
Objective...............:   6.3626571430769989e-03    6.3626571430769989e-03
Dual infeasibility......:   2.0782183441171640e-16    2.0782183441171640e-16
Constraint violation....:   4.5331281641343680e-14    1.8189894035458565e-11
Complementarity.........:   4.5011647150455878e-09    4.5011647150455878e-09
Overall NLP error.......:   4.5011647150455878e-09    4.5011647150455878e-09


Number of objective function evaluations             = 57
Number of objective gradient evaluations             = 57
Number of equality constraint evaluations            = 57
Number of inequality constraint evaluations          = 0
Number of equality constraint Jacobian evaluations   = 57
Number of inequality constraint Jacobian evaluations = 0
Number of Lagrangian Hessian evaluations             = 56
Total CPU secs in IPOPT (w/o function evaluations)   =    175.599
Total CPU secs in NLP function evaluations           =      3.258

EXIT: Optimal Solution Found.

************************ CUTEst statistics ************************


 Package used            :  IPOPT
 Problem                 :  CONT5-QP  
 # variables             =           40601
 # constraints           =           40200
 # objective functions   =        0.1150000E+03
 # objective gradients   =        0.5800000E+02
 # objective Hessians    =        0.5700000E+02
 # Hessian-vector prdct  =        0.0000000E+00
 # constraints functions =        0.1160000E+03
 # constraints gradients =        0.5900000E+02
 # constraints Hessians  =        0.5700000E+02
 Exit code               =               0
 Final f                 =        6.3626571430769989D-03
 Bounds feasibility      =        0.0000000000000000D+00
 Set up time             =            0.71 seconds
 Solve time              =          360.25 seconds


******************************************************************

